57168
37, 5, 51, 40, 43, 13, 41, 32, 19, 48, 17, 21, 23, 53, 10, 22, 29, 46, 36, 39, 15, 16, 9, 14, 2, 52, 45, 11, 25, 31, 1, 27, 33, 42, 12, 18, 30, 4, 47, 54, 34, 26, 55, 28, 3, 6, 49, 44, 8, 38, 35, 24, 50, 20, 7
